243/surrogate_problem/sol/surrogate2_28.sol
# Solution for model problem_
# Objective value = 7.6971995400804226e+04
x(0_0) 0
x(0_1) 1
x(0_2) 0
x(0_3) 0
x(0_4) 0
x(0_5) 0
x(0_6) 0
x(0_7) 0
x(0_8) 0
x(0_9) 0
x(0_10) 0
x(0_11) 0
x(0_12) 0
x(0_13) 0
x(0_14) 0
x(1_15) 0
x(1_16) 0
x(1_17) 0
x(1_18) 0
x(1_19) 0
x(1_20) 0
x(1_21) 0
x(1_22) 0
x(1_23) 0
x(1_24) 1
x(1_25) 0
x(1_26) 0
x(1_27) 0
x(1_28) 0
x(1_29) 0
x(1_30) 0
x(2_31) 0
x(2_32) 0
x(2_33) 0
x(2_34) 0
x(2_35) 0
x(2_36) 0
x(2_37) 0
x(2_38) 0
x(2_39) 0
x(2_40) 0
x(2_41) 0
x(2_42) 0
x(2_43) 0
x(2_44) 1
x(2_45) 0
x(2_46) 0
x(3_47) 0
x(3_48) 0
x(3_49) 1
x(3_50) 0
x(3_51) 0
x(3_52) 0
x(3_53) 0
x(3_54) 0
x(3_55) 0
x(3_56) 0
x(4_57) 0
x(4_58) 0
x(4_59) 0
x(4_60) 0
x(4_61) 0
x(4_62) 0
x(4_63) 1
x(4_64) 0
x(4_65) 0
x(4_66) 0
x(4_67) 0
x(4_68) 0
x(4_69) 0
x(4_70) 0
x(4_71) 0
x(4_72) 0
x(4_73) 0
x(4_74) 0
x(5_75) 0
x(5_76) 0
x(5_77) 0
x(5_78) 0
x(5_79) 1
x(5_80) 0
x(5_81) 0
x(5_82) 0
x(5_83) 0
x(5_84) 0
x(5_85) 0
x(5_86) 0
x(5_87) 0
x(6_88) 0
x(6_89) 0
x(6_90) 0
x(6_91) 0
x(6_92) 0
x(6_93) 0
x(6_94) 0
x(6_95) 1
x(6_96) 0
x(6_97) 0
x(7_98) 1
x(7_99) 0
x(7_100) 0
x(7_101) 0
x(7_102) 0
x(7_103) 0
x(7_104) 0
x(7_105) 0
x(7_106) 0
x(7_107) 0
x(7_108) 0
x(7_109) 0
x(7_110) 0
x(7_111) 0
x(8_112) 0
x(8_113) 0
x(8_114) 0
x(8_115) 0
x(8_116) 0
x(8_117) 0
x(8_118) 0
x(8_119) 0
x(8_120) 1
x(8_121) 0
x(8_122) 0
x(8_123) 0
x(8_124) 0
x(8_125) 0
x(8_126) 0
x(8_127) 0
x(8_128) 0
x(8_129) 0
x(9_130) 0
x(9_131) 0
x(9_132) 0
x(9_133) 0
x(9_134) 0
x(9_135) 0
x(9_136) 0
x(9_137) 0
x(9_138) 0
x(9_139) 0
x(9_140) 0
x(9_141) 0
x(9_142) 0
x(9_143) 0
x(9_144) 1
x(10_145) 0
x(10_146) 0
x(10_147) 0
x(10_148) 0
x(10_149) 0
x(10_150) 0
x(10_151) 0
x(10_152) 0
x(10_153) 0
x(10_154) 1
x(10_155) 0
x(10_156) 0
x(10_157) 0
x(10_158) 0
x(10_159) 0
x(10_160) 0
x(11_161) 1
x(11_162) 0
x(11_163) 0
x(11_164) 0
x(11_165) 0
x(11_166) 0
x(11_167) 0
x(11_168) 0
x(11_169) 0
x(11_170) 0
x(12_171) 0
x(12_172) 0
x(12_173) 1
x(12_174) 0
x(12_175) 0
x(12_176) 0
x(12_177) 0
x(12_178) 0
x(12_179) 0
x(12_180) 0
x(12_181) 0
x(12_182) 0
x(12_183) 0
x(12_184) 0
x(12_185) 0
x(12_186) 0
x(12_187) 0
x(12_188) 0
x(12_189) 0
x(13_190) 0
x(13_191) 0
x(13_192) 0
x(13_193) 0
x(13_194) 0
x(13_195) 0
x(13_196) 0
x(13_197) 0
x(13_198) 0
x(13_199) 0
x(13_200) 0
x(13_201) 1
x(13_202) 0
x(13_203) 0
x(13_204) 0
x(13_205) 0
x(13_206) 0
x(13_207) 0
x(13_208) 0
x(14_209) 0
x(14_210) 0
x(14_211) 0
x(14_212) 0
x(14_213) 0
x(14_214) 0
x(14_215) 0
x(14_216) 0
x(14_217) 0
x(14_218) 0
x(14_219) 0
x(14_220) 0
x(14_221) 0
x(14_222) 0
x(14_223) 1
x(14_224) 0
x(14_225) 0
x(14_226) 0
x(14_227) 0
x(15_228) 0
x(15_229) 0
x(15_230) 0
x(15_231) 0
x(15_232) 1
x(15_233) 0
x(15_234) 0
x(15_235) 0
x(15_236) 0
x(15_237) 0
x(15_238) 0
x(15_239) 0
x(15_240) 0
x(15_241) 0
x(15_242) 0
x(15_243) 0
x(15_244) 0
x(16_245) 0
x(16_246) 0
x(16_247) 1
x(16_248) 0
x(16_249) 0
x(16_250) 0
x(16_251) 0
x(16_252) 0
x(16_253) 0
x(16_254) 0
x(16_255) 0
x(16_256) 0
x(16_257) 0
x(16_258) 0
x(17_259) 0
x(17_260) 0
x(17_261) 1
x(17_262) 0
x(17_263) 0
x(17_264) 0
x(17_265) 0
x(17_266) 0
x(17_267) 0
x(17_268) 0
x(17_269) 0
x(17_270) 0
x(17_271) 0
x(17_272) 0
x(18_273) 0
x(18_274) 0
x(18_275) 0
x(18_276) 0
x(18_277) 0
x(18_278) 0
x(18_279) 1
x(18_280) 0
x(18_281) 0
x(18_282) 0
x(18_283) 0
x(18_284) 0
x(19_285) 0
x(19_286) 0
x(19_287) 0
x(19_288) 0
x(19_289) 0
x(19_290) 0
x(19_291) 0
x(19_292) 0
x(19_293) 0
x(19_294) 0
x(19_295) 0
x(19_296) 1
x(20_297) 0
x(20_298) 0
x(20_299) 0
x(20_300) 0
x(20_301) 0
x(20_302) 0
x(20_303) 0
x(20_304) 0
x(20_305) 0
x(20_306) 0
x(20_307) 0
x(20_308) 0
x(20_309) 0
x(20_310) 0
x(20_311) 0
x(20_312) 0
x(20_313) 0
x(20_314) 1
x(20_315) 0
x(20_316) 0
x(21_317) 0
x(21_318) 0
x(21_319) 0
x(21_320) 0
x(21_321) 0
x(21_322) 0
x(21_323) 0
x(21_324) 0
x(21_325) 0
x(21_326) 0
x(21_327) 0
x(21_328) 0
x(21_329) 0
x(21_330) 0
x(21_331) 0
x(21_332) 0
x(21_333) 0
x(21_334) 0
x(21_335) 1
x(21_336) 0
x(22_337) 0
x(22_338) 0
x(22_339) 0
x(22_340) 0
x(22_341) 0
x(22_342) 0
x(22_343) 0
x(22_344) 0
x(22_345) 0
x(22_346) 0
x(22_347) 0
x(22_348) 0
x(22_349) 1
x(22_350) 0
x(22_351) 0
x(22_352) 0
x(23_353) 0
x(23_354) 0
x(23_355) 0
x(23_356) 0
x(23_357) 0
x(23_358) 0
x(23_359) 0
x(23_360) 0
x(23_361) 1
x(23_362) 0
x(23_363) 0
x(23_364) 0
x(23_365) 0
x(24_366) 1
x(24_367) 0
x(24_368) 0
x(24_369) 0
x(24_370) 0
x(24_371) 0
x(24_372) 0
x(24_373) 0
x(24_374) 0
x(24_375) 0
x(24_376) 0
x(24_377) 0
x(24_378) 0
x(24_379) 0
x(24_380) 0
x(24_381) 0
x(24_382) 0
x(25_383) 1
x(25_384) 0
x(25_385) 0
x(25_386) 0
x(25_387) 0
x(25_388) 0
x(25_389) 0
x(25_390) 0
x(25_391) 0
x(25_392) 0
x(26_393) 0
x(26_394) 0
x(26_395) 0
x(26_396) 0
x(26_397) 1
x(26_398) 0
x(26_399) 0
x(26_400) 0
x(26_401) 0
x(26_402) 0
x(26_403) 0
x(26_404) 0
x(26_405) 0
x(26_406) 0
x(26_407) 0
x(26_408) 0
x(26_409) 0
x(27_410) 0
x(27_411) 0
x(27_412) 0
x(27_413) 0
x(27_414) 0
x(27_415) 0
x(27_416) 0
x(27_417) 0
x(27_418) 0
x(27_419) 0
x(27_420) 0
x(27_421) 0
x(27_422) 0
x(27_423) 1
x(27_424) 0
x(27_425) 0
x(27_426) 0
x(27_427) 0
x(28_428) 0
x(28_429) 0
x(28_430) 0
x(28_431) 0
x(28_432) 0
x(28_433) 0
x(28_434) 0
x(28_435) 0
x(28_436) 0
x(28_437) 0
x(28_438) 0
x(28_439) 0
x(28_440) 0
x(28_441) 1
x(28_442) 0
x(29_443) 1
x(29_444) 0
x(29_445) 0
x(29_446) 0
x(29_447) 0
x(29_448) 0
x(29_449) 0
x(29_450) 0
x(29_451) 0
x(29_452) 0
x(29_453) 0
x(29_454) 0
x(30_455) 0
x(30_456) 0
x(30_457) 1
x(30_458) 0
x(30_459) 0
x(30_460) 0
x(30_461) 0
x(30_462) 0
x(30_463) 0
x(30_464) 0
x(30_465) 0
x(30_466) 0
x(30_467) 0
x(30_468) 0
x(30_469) 0
x(30_470) 0
x(30_471) 0
x(31_472) 0
x(31_473) 0
x(31_474) 0
x(31_475) 0
x(31_476) 0
x(31_477) 0
x(31_478) 0
x(31_479) 0
x(31_480) 1
x(31_481) 0
x(31_482) 0
x(31_483) 0
x(31_484) 0
x(31_485) 0
x(31_486) 0
x(31_487) 0
x(31_488) 0
x(31_489) 0
x(32_490) 0
x(32_491) 0
x(32_492) 0
x(32_493) 0
x(32_494) 0
x(32_495) 0
x(32_496) 0
x(32_497) 0
x(32_498) 0
x(32_499) 0
x(32_500) 0
x(32_501) 0
x(32_502) 1
x(32_503) 0
x(32_504) 0
x(32_505) 0
x_1_0 1.3143493609875441e+02
s_1_0 0
z_1_0 0
x_1_1 1.3348761418648064e+02
s_1_1 0
z_1_1 0
x_1_2 1.3465135696250945e+02
s_1_2 0
z_1_2 0
x_1_3 1.3304880418442190e+02
s_1_3 0
z_1_3 0
x_1_4 1.3429811114910990e+02
s_1_4 0
z_1_4 0
x_1_5 1.3428176977857947e+02
s_1_5 0
z_1_5 0
x_1_6 0
s_1_6 3.7410130817443132e-01
z_1_6 1
x_1_7 0
s_1_7 4.1188280284404755e-01
z_1_7 1
x_1_8 1.3364933347888291e+02
s_1_8 0
z_1_8 0
x_1_9 1.3240506249584723e+02
s_1_9 0
z_1_9 0
x_1_10 0
s_1_10 4.6344296308234334e-01
z_1_10 1
x_1_11 1.3344623090722598e+02
s_1_11 0
z_1_11 0
x_1_12 1.3358003234770149e+02
s_1_12 0
z_1_12 0
x_1_13 0
s_1_13 3.6400830047205091e-01
z_1_13 1
x_1_14 1.3267509239073843e+02
s_1_14 0
z_1_14 0
x_1_15 0
s_1_15 8.7382755451835692e-01
z_1_15 1
x_1_16 0
s_1_16 5.4816445793079538e-01
z_1_16 1
x_1_17 0
s_1_17 7.7895008435007185e-01
z_1_17 1
x_1_18 1.3443502950528637e+02
s_1_18 0
z_1_18 0
x_1_19 0
s_1_19 3.2050675677601248e-01
z_1_19 1
x_1_20 0
s_1_20 5.5437902786070481e-01
z_1_20 1
x_1_21 1.3341714604385197e+02
s_1_21 0
z_1_21 0
x_1_22 0
s_1_22 5.8962395018897951e-01
z_1_22 1
x_1_23 1.3097689206013456e+02
s_1_23 0
z_1_23 0
x_1_24 0
s_1_24 6.2543134647421539e-01
z_1_24 1
x_1_25 1.3323830136284232e+02
s_1_25 0
z_1_25 0
x_1_26 1.3457354472787119e+02
s_1_26 0
z_1_26 0
x_1_27 1.3409441320598125e+02
s_1_27 0
z_1_27 0
x_1_28 0
s_1_28 4.7780522957327776e-01
z_1_28 1
x_1_29 0
s_1_29 8.3180137292947620e-01
z_1_29 1
x_1_30 1.3377221648208797e+02
s_1_30 0
z_1_30 0
x_1_31 0
s_1_31 9.4514300301671028e-01
z_1_31 1
x_1_32 0
s_1_32 6.3817456865217537e-01
z_1_32 1
x_1_33 0
s_1_33 8.8416523998603225e-01
z_1_33 1
x_1_34 1.3351994664408267e+02
s_1_34 0
z_1_34 0
x_1_35 1.3240837637335062e+02
s_1_35 0
z_1_35 0
x_1_36 0
s_1_36 4.5432398398406804e-01
z_1_36 1
x_1_37 1.3318038470298052e+02
s_1_37 0
z_1_37 0
x_1_38 1.3372022697236389e+02
s_1_38 0
z_1_38 0
x_1_39 1.3240261829830706e+02
s_1_39 0
z_1_39 0
x_1_40 133.111613066867
s_1_40 0
z_1_40 0
x_1_41 0
s_1_41 3.4606229094424634e-01
z_1_41 1
x_1_42 1.3434673333168030e+02
s_1_42 0
z_1_42 0
x_1_43 1.3371571579610463e+02
s_1_43 0
z_1_43 0
x_1_44 1.3322467475850135e+02
s_1_44 0
z_1_44 0
x_1_45 1.3344647767860442e+02
s_1_45 0
z_1_45 0
x_1_46 1.3321770038636168e+02
s_1_46 0
z_1_46 0
x_1_47 1.3331275726947933e+02
s_1_47 0
z_1_47 0
x_1_48 0
s_1_48 6.2247247129562311e-01
z_1_48 1
x_1_49 0
s_1_49 2.5390913640148938e-01
z_1_49 1
x_1_50 1.3365801251935773e+02
s_1_50 0
z_1_50 0
x_1_51 0
s_1_51 4.4024897250346839e-01
z_1_51 1
x_1_52 0
s_1_52 8.7960828933864832e-01
z_1_52 1
x_1_53 1.3342685527354479e+02
s_1_53 0
z_1_53 0
x_1_54 0
s_1_54 5.5683562898775563e-01
z_1_54 1
x_1_55 0
s_1_55 2.6950288424268365e-01
z_1_55 1
x_1_56 0
s_1_56 0.614194012247026
z_1_56 1
x_1_57 0
s_1_57 6.2453120751888491e-01
z_1_57 1
x_1_58 1.3363396205985919e+02
s_1_58 0
z_1_58 0
x_1_59 0
s_1_59 0.690084331901744
z_1_59 1
x_1_60 0
s_1_60 8.0367370601743460e-01
z_1_60 1
x_1_61 1.3153702377434820e+02
s_1_61 0
z_1_61 0
x_1_62 0
s_1_62 5.2535587828606367e-01
z_1_62 1
x_1_63 1.3317552926251665e+02
s_1_63 0
z_1_63 0
x_1_64 1.3316160646826029e+02
s_1_64 0
z_1_64 0
x_1_65 1.3343166260817088e+02
s_1_65 0
z_1_65 0
x_1_66 1.3285375014744932e+02
s_1_66 0
z_1_66 0
x_1_67 1.3110491237812676e+02
s_1_67 0
z_1_67 0
x_1_68 1.3401360104954801e+02
s_1_68 0
z_1_68 0
x_1_69 1.3368746071308851e+02
s_1_69 0
z_1_69 0
x_1_70 0
s_1_70 5.8912024769233540e-01
z_1_70 1
x_1_71 0
s_1_71 5.7938733953051269e-01
z_1_71 1
x_1_72 0
s_1_72 7.7549798844847828e-01
z_1_72 1
x_1_73 1.3259243646217510e+02
s_1_73 0
z_1_73 0
x_1_74 1.3242836501309648e+02
s_1_74 0
z_1_74 0
x_1_75 0
s_1_75 7.1921589132398367e-01
z_1_75 1
x_1_76 0
s_1_76 4.9865347077138722e-01
z_1_76 1
x_1_77 0
s_1_77 4.8014845792204142e-01
z_1_77 1
x_1_78 1.3204050533613190e+02
s_1_78 0
z_1_78 0
x_1_79 133.18991185911
s_1_79 0
z_1_79 0
x_1_80 1.3300866447668523e+02
s_1_80 0
z_1_80 0
x_1_81 1.3230841696169227e+02
s_1_81 0
z_1_81 0
x_1_82 1.3340906278975308e+02
s_1_82 0
z_1_82 0
x_1_83 1.3332552550826222e+02
s_1_83 0
z_1_83 0
x_1_84 1.3358421376347542e+02
s_1_84 0
z_1_84 0
x_1_85 0
s_1_85 7.1947871684096754e-01
z_1_85 1
x_1_86 1.3435707221925259e+02
s_1_86 0
z_1_86 0
x_1_87 0
s_1_87 6.9480761606246233e-01
z_1_87 1
x_1_88 0
s_1_88 6.4979593793395907e-01
z_1_88 1
x_1_89 0
s_1_89 1.0085649881511927e+00
z_1_89 1
x_1_90 0
s_1_90 5.9177189134061337e-01
z_1_90 1
x_1_91 1.3436836123373359e+02
s_1_91 0
z_1_91 0
x_1_92 1.3461145079135895e+02
s_1_92 0
z_1_92 0
x_1_93 0
s_1_93 6.6332843992859125e-01
z_1_93 1
x_1_94 1.3418598460778594e+02
s_1_94 0
z_1_94 0
x_1_95 1.3333788556233048e+02
s_1_95 0
z_1_95 0
x_1_96 0
s_1_96 4.7108780592679977e-01
z_1_96 1
x_1_97 1.3415919479430886e+02
s_1_97 0
z_1_97 0
x_1_98 1.3414386614877731e+02
s_1_98 0
z_1_98 0
x_1_99 1.3436659375019372e+02
s_1_99 0
z_1_99 0
x_1_100 1.3408473626989871e+02
s_1_100 0
z_1_100 0
x_1_101 1.3308431286364794e+02
s_1_101 0
z_1_101 0
x_1_102 0
s_1_102 0.909625417611096
z_1_102 1
x_1_103 0
s_1_103 3.8323355029569939e-01
z_1_103 1
x_1_104 0
s_1_104 6.8830562132643536e-01
z_1_104 1
x_1_105 1.3437746724276803e+02
s_1_105 0
z_1_105 0
x_1_106 0
s_1_106 5.2258884778711945e-01
z_1_106 1
x_1_107 1.3236907685361803e+02
s_1_107 0
z_1_107 0
x_1_108 1.3264430137258023e+02
s_1_108 0
z_1_108 0
x_1_109 0
s_1_109 2.5494940744829364e-01
z_1_109 1
x_1_110 1.3430873744189739e+02
s_1_110 0
z_1_110 0
x_1_111 1.3294949678890407e+02
s_1_111 0
z_1_111 0
x_1_112 0
s_1_112 6.3717528706183657e-01
z_1_112 1
x_1_113 1.3323099718615413e+02
s_1_113 0
z_1_113 0
x_1_114 0
s_1_114 5.2028003218583763e-01
z_1_114 1
x_1_115 0
s_1_115 7.5493491574889049e-01
z_1_115 1
x_1_116 1.3274093225738034e+02
s_1_116 0
z_1_116 0
x_1_117 1.3316990889981389e+02
s_1_117 0
z_1_117 0
x_1_118 1.3398549658246338e+02
s_1_118 0
z_1_118 0
x_1_119 0
s_1_119 8.2637027805321850e-01
z_1_119 1
x_1_120 1.3448649604432285e+02
s_1_120 0
z_1_120 0
x_1_121 1.3264927683025599e+02
s_1_121 0
z_1_121 0
x_1_122 1.3441473290324211e+02
s_1_122 0
z_1_122 0
x_1_123 1.3042988399788737e+02
s_1_123 0
z_1_123 0
x_1_124 0
s_1_124 5.0041208195034415e-01
z_1_124 1
x_1_125 1.3286749963799957e+02
s_1_125 0
z_1_125 0
x_1_126 0
s_1_126 7.0531613435014151e-01
z_1_126 1
x_1_127 1.3430971948616207e+02
s_1_127 0
z_1_127 0
x_1_128 1.3301864258958085e+02
s_1_128 0
z_1_128 0
x_1_129 1.3337547098193318e+02
s_1_129 0
z_1_129 0
x_1_130 0
s_1_130 3.0579342087730765e-01
z_1_130 1
x_1_131 1.3465714132785797e+02
s_1_131 0
z_1_131 0
x_1_132 1.3330174879543483e+02
s_1_132 0
z_1_132 0
x_1_133 0
s_1_133 2.5683424505405128e-01
z_1_133 1
x_1_134 0
s_1_134 6.1047512857476249e-01
z_1_134 1
x_1_135 1.3262055259558838e+02
s_1_135 0
z_1_135 0
x_1_136 1.3453979816986248e+02
s_1_136 0
z_1_136 0
x_1_137 0
s_1_137 5.7966376189142466e-01
z_1_137 1
x_1_138 1.3248251272924244e+02
s_1_138 0
z_1_138 0
x_1_139 0
s_1_139 5.4671828821301460e-01
z_1_139 1
x_1_140 1.3311025337502360e+02
s_1_140 0
z_1_140 0
x_1_141 1.3433568096533418e+02
s_1_141 0
z_1_141 0
x_1_142 1.3260137916170061e+02
s_1_142 0
z_1_142 0
x_1_143 1.3451818597316742e+02
s_1_143 0
z_1_143 0
x_1_144 0
s_1_144 3.2235512637998909e-01
z_1_144 1
x_1_145 0
s_1_145 2.2186465060804039e-01
z_1_145 1
x_1_146 1.3255053488072008e+02
s_1_146 0
z_1_146 0
x_1_147 1.3351909757964313e+02
s_1_147 0
z_1_147 0
x_1_148 1.3398006730899215e+02
s_1_148 0
z_1_148 0
x_1_149 1.3306673883087933e+02
s_1_149 0
z_1_149 0
x_1_150 0
s_1_150 0.522119904650026
z_1_150 1
x_1_151 1.3375350208068267e+02
s_1_151 0
z_1_151 0
x_1_152 0
s_1_152 5.4603633657097816e-01
z_1_152 1
x_1_153 0
s_1_153 2.6927186641842127e-01
z_1_153 1
x_1_154 1.3394880153611302e+02
s_1_154 0
z_1_154 0
x_1_155 1.3428105722554028e+02
s_1_155 0
z_1_155 0
x_1_156 1.3277746034460142e+02
s_1_156 0
z_1_156 0
x_1_157 0
s_1_157 3.3330552291590720e-01
z_1_157 1
x_1_158 1.3135649365931749e+02
s_1_158 0
z_1_158 0
x_1_159 1.3441324295476079e+02
s_1_159 0
z_1_159 0
x_2_0 7.6410491400804225e+04
